1111100 AB red
465 495 525 555 590 625 1005 1035 1070 1095 1125 1160 1185 1215
1111100 AB
482 498 515 530 545 560 585 605 645 665 705 745 795 835 875 920 965 1010 1030 1050 1065 1080 1100 1120 1140 1155 1170 1200 1230 1260
1111100 BA red
420 450 480 510 540 570 960 990 1020 1050 1080 1115 1140 1170
